Optimal - objective value 36.00383400
      0 c_0                         1                       1
      1 c_1                         1                       1
      2 c_2                         1                       1
      3 c_3                         1                       1
      4 c_4                         1                       1
      5 c_5                         1                       1
      6 c_6                         1                       1
      7 c_7                         1                       1
      8 c_8                         1                       1
      9 c_9                         1                       1
     10 c_10                        1                       1
     11 c_11                        1                       1
     12 c_12                        1                       1
     13 c_13                        1                       1
     14 c_14                        1                       1
     15 c_15                        1                       1
     16 c_16                        1                       1
     17 c_17                        1                       1
     18 c_18                        1                       1
     19 c_19                        1                       1
     20 c_20                        1                       1
     21 c_21                        1                       1
     22 c_22                        1                       1
     23 c_23                        1                       1
     24 c_24                        1                       1
     25 c_25                        1                       1
     26 c_26                        1                       1
     27 c_27                        1                       1
     28 c_28                        1                       1
     29 c_29                        1                       1
     30 c_30                        1                       1
     31 c_31                        1                       1
     32 c_32                        1                       1
     33 c_33                        1                       1
     34 c_34                        1                       1
     35 c_35                        1                       1
     36 r_0                         1                   0.001
     50 r_14                        1                0.000917
     51 r_15                        1                0.000917
     53 b_1                         1                   0.001
